45
1000
200	4
199	1
198	1
197	3
196	2
195	2
194	3
193	3
192	2
191	2
190	2
189	2
188	1
187	2
186	3
185	1
184	1
183	3
182	3
180	3
179	4
178	1
175	2
174	1
173	1
172	1
171	1
170	2
169	3
168	7
167	1
166	4
165	1
163	2
162	4
161	1
159	1
158	3
157	2
156	1
155	5
154	1
153	3
151	1
150	3
